(set-info :smt-lib-version 2.6)
(set-logic QF_UFLRA)
(set-info :source |
MathSat group

|)
(set-info :category "random")
(set-info :status sat)
(declare-fun x0 () Real)
(declare-fun x1 () Real)
(declare-fun x2 () Real)
(declare-fun x3 () Real)
(declare-fun x4 () Real)
(declare-fun x5 () Real)
(declare-fun x6 () Real)
(declare-fun x7 () Real)
(declare-fun x8 () Real)
(declare-fun x9 () Real)
(declare-fun x10 () Real)
(declare-fun x11 () Real)
(declare-fun x12 () Real)
(declare-fun x13 () Real)
(declare-fun x14 () Real)
(declare-fun x15 () Real)
(declare-fun x16 () Real)
(declare-fun x17 () Real)
(declare-fun x18 () Real)
(declare-fun x19 () Real)
(declare-fun x20 () Real)
(declare-fun x21 () Real)
(declare-fun x22 () Real)
(declare-fun x23 () Real)
(declare-fun x24 () Real)
(declare-fun x25 () Real)
(declare-fun x26 () Real)
(declare-fun x27 () Real)
(declare-fun x28 () Real)
(declare-fun x29 () Real)
(declare-fun x30 () Real)
(declare-fun x31 () Real)
(declare-fun x32 () Real)
(declare-fun x33 () Real)
(declare-fun x34 () Real)
(declare-fun x35 () Real)
(declare-fun x36 () Real)
(declare-fun x37 () Real)
(declare-fun x38 () Real)
(declare-fun x39 () Real)
(declare-fun f0_1 (Real) Real)
(declare-fun f0_2 (Real Real) Real)
(declare-fun f0_3 (Real Real Real) Real)
(declare-fun f0_4 (Real Real Real Real) Real)
(declare-fun P0 () Bool)
(declare-fun P1 () Bool)
(declare-fun P2 () Bool)
(declare-fun P3 () Bool)
(declare-fun P4 () Bool)
(declare-fun P5 () Bool)
(declare-fun P6 () Bool)
(declare-fun P7 () Bool)
(declare-fun P8 () Bool)
(declare-fun P9 () Bool)
(declare-fun P10 () Bool)
(declare-fun P11 () Bool)
(declare-fun P12 () Bool)
(declare-fun P13 () Bool)
(declare-fun P14 () Bool)
(declare-fun P15 () Bool)
(declare-fun P16 () Bool)
(declare-fun P17 () Bool)
(declare-fun P18 () Bool)
(declare-fun P19 () Bool)
(declare-fun P20 () Bool)
(declare-fun P21 () Bool)
(declare-fun P22 () Bool)
(declare-fun P23 () Bool)
(declare-fun P24 () Bool)
(declare-fun P25 () Bool)
(declare-fun P26 () Bool)
(declare-fun P27 () Bool)
(declare-fun P28 () Bool)
(declare-fun P29 () Bool)
(declare-fun P30 () Bool)
(declare-fun P31 () Bool)
(declare-fun P32 () Bool)
(declare-fun P33 () Bool)
(declare-fun P34 () Bool)
(declare-fun P35 () Bool)
(declare-fun P36 () Bool)
(declare-fun P37 () Bool)
(declare-fun P38 () Bool)
(declare-fun P39 () Bool)
(assert (let ((?v_5 (<= (+ (- (* 33 x2) (* 54 x8)) (* 13 x11)) 19)) (?v_52 (* 41 x4)) (?v_23 (< (- (+ (* 30 x17) (* 39 x1)) (* 20 x33)) 29)) (?v_90 (* 51 x9))) (let ((?v_157 (< (+ (- (* 10 x19) ?v_90) (* 6 x2)) 8)) (?v_30 (* 3 x36)) (?v_19 (<= (- (+ (* 47 x25) (* 12 x29)) (* 55 x37)) 31)) (?v_101 (<= (- (+ (* 37 x22) (* 53 x27)) (* 21 x21)) 0)) (?v_57 (<= (- (- (* 38 x14) (* 57 x17)) (* 45 x18)) 55)) (?v_13 (distinct (- (+ (* 43 x13) (* 24 x27)) (* 24 x29)) 25)) (?v_76 (= (f0_2 x7 x30) (f0_2 x28 x16))) (?v_163 (f0_1 x27))) (let ((?v_114 (= ?v_163 x10)) (?v_128 (= x16 (f0_2 x20 x28))) (?v_26 (f0_1 x18))) (let ((?v_1 (distinct ?v_26 x33)) (?v_63 (f0_1 x29))) (let ((?v_140 (= (f0_1 x24) ?v_63)) (?v_18 (distinct x4 x38)) (?v_187 (= (f0_2 x10 x24) x19)) (?v_72 (= x30 (f0_2 x30 x8))) (?v_10 (distinct (f0_2 x12 x23) (f0_2 x34 x1))) (?v_14 (f0_1 x30))) (let ((?v_161 (distinct ?v_14 (f0_1 x5))) (?v_105 (= x3 x17)) (?v_97 (= (f0_2 x0 x8) (f0_2 x38 x26))) (?v_189 (= (f0_2 x19 x38) ?v_14)) (?v_50 (distinct (f0_2 x20 x20) (f0_2 x28 x23))) (?v_70 (distinct x3 x23)) (?v_150 (= (f0_2 x12 x1) (f0_2 x20 x38))) (?v_11 (f0_1 x1))) (let ((?v_24 (= x33 ?v_11)) (?v_31 (distinct (f0_2 x28 x19) ?v_11)) (?v_39 (f0_1 x22))) (let ((?v_6 (= ?v_39 x24)) (?v_134 (= (f0_1 x23) (f0_2 x22 x19))) (?v_109 (distinct (f0_2 x1 x0) (f0_2 x24 x29))) (?v_61 (f0_1 x36))) (let ((?v_51 (= x32 ?v_61)) (?v_113 (= x17 (f0_2 x16 x12))) (?v_28 (distinct x4 (f0_2 x36 x21))) (?v_135 (distinct (f0_2 x12 x35) x6)) (?v_185 (distinct x11 x2)) (?v_71 (f0_1 x2))) (let ((?v_44 (= (f0_1 x17) ?v_71)) (?v_107 (distinct (f0_2 x29 x30) (f0_1 x35))) (?v_127 (distinct ?v_61 ?v_39)) (?v_7 (distinct x7 (f0_2 x12 x29))) (?v_80 (distinct (f0_2 x22 x34) (f0_2 x28 x34))) (?v_102 (= x38 (f0_1 x11))) (?v_129 (= ?v_39 (f0_2 x3 x22))) (?v_130 (= ?v_26 (f0_2 x28 x36))) (?v_40 (= x26 ?v_63)) (?v_88 (distinct ?v_71 (f0_2 x21 x23))) (?v_53 (= ?v_39 x25)) (?v_184 (distinct x15 ?v_163)) (?v_36 (distinct x28 (f0_2 x38 x9))) (?v_92 (distinct x13 x0)) (?v_3 (not P9)) (?v_2 (not P16)) (?v_17 (not ?v_101)) (?v_35 (not ?v_13)) (?v_69 (not P30)) (?v_201 (not ?v_28)) (?v_125 (not P24)) (?v_100 (not P6)) (?v_27 (not ?v_1)) (?v_38 (not P28)) (?v_25 (not ?v_161)) (?v_89 (not P35)) (?v_169 (not ?v_6)) (?v_181 (not ?v_113)) (?v_151 (not P29)) (?v_82 (not P25)) (?v_104 (not P13)) (?v_81 (not ?v_189)) (?v_55 (not ?v_128)) (?v_22 (not P10)) (?v_152 (not ?v_18)) (?v_54 (not ?v_19)) (?v_65 (not P18)) (?v_186 (not ?v_23)) (?v_29 (not P36))) (let ((?v_41 (not ?v_130)) (?v_148 (not ?v_57)) (?v_137 (not ?v_80)) (?v_49 (not ?v_36)) (?v_124 (not ?v_31)) (?v_62 (not ?v_134)) (?v_110 (not P31)) (?v_43 (not ?v_51)) (?v_112 (not P19)) (?v_68 (not P33)) (?v_47 (not ?v_5)) (?v_74 (not P23)) (?v_177 (not P7)) (?v_103 (not ?v_44)) (?v_56 (not P27)) (?v_91 (not P39)) (?v_146 (not P22)) (?v_199 (not ?v_53)) (?v_156 (not ?v_127)) (?v_179 (not P14))) (let ((?v_205 (or ?v_135 ?v_179)) (?v_78 (not ?v_140)) (?v_75 (not ?v_109)) (?v_86 (not P15)) (?v_116 (not ?v_24)) (?v_73 (not ?v_157)) (?v_108 (not ?v_7)) (?v_174 (not ?v_70)) (?v_77 (not ?v_88)) (?v_183 (not ?v_72)) (?v_111 (not P38)) (?v_172 (not P26)) (?v_87 (not ?v_76)) (?v_99 (not P5)) (?v_155 (not P1)) (?v_131 (not ?v_114)) (?v_198 (not P12)) (?v_98 (not ?v_50)) (?v_120 (not ?v_10)) (?v_115 (not ?v_105)) (?v_171 (not ?v_107)) (?v_119 (not ?v_40)) (?v_191 (not P32)) (?v_162 (not ?v_97)) (?v_182 (not P3)) (?v_176 (not ?v_102)) (?v_180 (not ?v_129)) (?v_143 (not P34)) (?v_192 (not ?v_185)) (?v_165 (not ?v_135)) (?v_175 (not P17)) (?v_195 (not P21)) (?v_203 (not P2)) (?v_208 (not P20)) (?v_164 (not P11)) (?v_170 (not ?v_184)) (?v_188 (not P37)) (?v_194 (not ?v_150)) (?v_206 (not ?v_92)) (?v_204 (or ?v_36 P36)) (?v_207 (not ?v_187)) (?v_0 (distinct (+ (* 40 x19) (* 52 x24) (* 33 x34)) 37))) (let ((?v_197 (not ?v_0)) (?v_34 (<= (- (* 30 x39) (* 33 x23)) 8)) (?v_42 (< (- 0 (* 3 x37)) 20)) (?v_16 (distinct (+ (* 57 x31) (* 22 x6) (* 54 x35)) 35)) (?v_32 (< (+ (* 24 x36) (* 48 x35) ?v_30) 56))) (let ((?v_83 (not ?v_34)) (?v_45 (< (+ (- (* 18 x4) 0) ?v_52) 21)) (?v_138 (not ?v_32)) (?v_64 (< (- (* 34 x7) (* 2 x27)) 25))) (let ((?v_37 (not ?v_64)) (?v_136 (<= (+ (- 0 (* 47 x39)) (* 54 x3)) 2))) (let ((?v_94 (not ?v_136)) (?v_95 (<= (+ ?v_52 (* 45 x17) (* 50 x10)) 58))) (let ((?v_60 (not ?v_95)) (?v_67 (< (+ (* 25 x9) (* 11 x3) (* 28 x27)) 53)) (?v_126 (not ?v_42)) (?v_149 (not ?v_16))) (let ((?v_121 (not ?v_67)) (?v_117 (not ?v_45)) (?v_196 (<= (- (+ (* 24 x39) ?v_30) (* 42 x17)) (- 3)))) (let ((?v_122 (not ?v_196)) (?v_4 (<= (+ (- (* (- 20) x34) (* 45 x29)) (* 8 x10)) (- 55)))) (let ((?v_93 (not ?v_4)) (?v_160 (<= (- (- (* (- 49) x12) (* 18 x11)) (* 6 x39)) 26))) (let ((?v_12 (not ?v_160)) (?v_15 (= (- (+ (* (- 34) x10) (* 15 x19)) (* 29 x21)) (- 1)))) (let ((?v_9 (not ?v_15)) (?v_141 (<= (+ (- (* (- 11) x22) (* 51 x34)) (* 7 x8)) (- 14)))) (let ((?v_66 (not ?v_141)) (?v_48 (distinct (- (- (* (- 55) x33) (* 38 x28)) (* 30 x32)) (- 22))) (?v_8 (< (- (- (* (- 19) x39) (* 25 x34)) (* 47 x6)) (- 3))) (?v_20 (< (- (+ (* (- 38) x38) (* 5 x24)) (* 3 x19)) (- 12)))) (let ((?v_147 (not ?v_20)) (?v_159 (not ?v_8)) (?v_21 (< (+ (* (- 48) x36) (* 47 x26) (* 8 x15)) (- 22))) (?v_58 (<= (- (- (* 13 x3) (* 57 x13)) (* 15 x32)) (- 34))) (?v_106 (<= (- (+ (* 19 x34) (* 55 x25)) (* 27 x13)) (- 28)))) (let ((?v_144 (not ?v_106)) (?v_85 (not ?v_21)) (?v_79 (distinct (- (- (* 6 x31) (* 19 x25)) (* 12 x26)) (- 50)))) (let ((?v_173 (not ?v_79)) (?v_59 (<= (- (- (* 28 x3) 0) (* 53 x33)) (- 43))) (?v_33 (<= (- (+ (* (- 55) x18) (* 16 x11)) (* 30 x10)) 46))) (let ((?v_123 (not ?v_33)) (?v_46 (< (+ (* 55 x21) (* 52 x8) (* 20 x28)) (- 12))) (?v_84 (not ?v_48)) (?v_145 (< (+ (* (- 43) x25) (* 30 x36) (* 3 x3)) 52))) (let ((?v_142 (not ?v_145)) (?v_132 (not ?v_58)) (?v_96 (not ?v_59)) (?v_139 (< (+ (- (* (- 46) x25) (* 11 x9)) (* 56 x37)) 38))) (let ((?v_118 (not ?v_139)) (?v_168 (not ?v_46)) (?v_167 (< (+ (- (* (- 27) x27) (* 17 x26)) ?v_90) 49)) (?v_133 (< (- (- (* (- 13) x28) (* 26 x6)) (* 45 x26)) 49)) (?v_154 (< (- (+ (* (- 2) x27) (* 31 x2)) (* 47 x11)) (- 18))) (?v_158 (distinct (+ (- (* 43 x24) (* 21 x28)) (* 45 x39)) (- 27))) (?v_153 (= (+ (* (- 4) x34) (* 12 x39) (* 16 x13)) (- 36)))) (let ((?v_166 (not ?v_154)) (?v_202 (not ?v_133)) (?v_190 (not ?v_153)) (?v_178 (not ?v_158)) (?v_193 (not ?v_167)) (?v_200 (< (- (+ (* (- 41) x13) (* 9 x35)) (* 43 x21)) (- 4)))) (and (and (and (and (and (and (and (and (and (and (and (and (and (and (and (and (and (and (and (and (and (and (and (and (and (and (and (and (and (and (and (and (and (and (and (and (and (and (and (and (and (and (and (and (and (and (and (and (and (and (and (and (and (and (and (and (and (and (and (and (and (and (and (and (and (and (and (and (and (and (and (and (and (and (and (and (and (and (and (and (and (and (and (and (and (and (and (and (and (and (and (and (and (and (and (and (and (and (and (and (and (and (and (and (and (and (and (and (and (and (and (and (and (and (and (and (and (and (and (and (and (and (and (and (and (and (and (and (and (and (and (and (and (and (and (and (and (and (and (and (and (and (and (and (and (and (and (and (and (and (and (and (and (and (and (and (and (and (and (and (and (and (and (and (and (and (and (and (and (and (and (and (and (and (and (and (and (and (and (and (and (and (and (and (and (and (and (and (and (and (and (and (and (and (and (and (and (and (and (and (and (and (and (and (and (and (and (and (and (and (and (and (and (and (and (and (and (and (and (and (and (and (and (and (and (and (and (and (and (and (and (and (and (and (and (and (and (and (and (and (and (and (and (and (and (and (and (and (and (and (and (and (and (and (and (and (and (and (and (and (and (and (and (and (and (and (and (and (and (and (and (and (and (and (and (and (and (and (and (and (and (and (and (and (and (and (and (and (and (and (and (and (and (and (and (and (and (and (and (and (and (and (and (and (and (and (and (and (and (and (and (and (and (and (and (and (and (and (and (and (and (and (and (and (and (and (and (and (and (and (and (and (and (and (and (and (and (and (and (and (and (and (and (and (and (and (and (and (and (and (and (and (and (and (and (and (and (and (and (and (and (and (and (and (and (and (and (and (and (and (and (and (and (and (and (and (and (and (and (and (and (and (and (and (and (and (and (and (and (and (and (and (and (and (and (and (and (and (and (and (and (and (and (and (and (and (and (and (and (and (and (and (and (and (and (and (and (and (and (and (and (and (and (and (and (and (and (and (and (and (and (and (and (and (and (and (and (and (and (and (and (and (and (and (and (and (and (and (and (and (and (and (and (and (and (and (and (and (and (and (and (and (and (and (and (and (and (and (and (and (and (and (and (and (and (and (and (and (and (or (or ?v_97 ?v_7) ?v_3) (or (or ?v_122 ?v_2) ?v_17)) (or (or ?v_18 ?v_23) P6)) (or (or P31 ?v_35) ?v_69)) (or (or ?v_0 ?v_201) P5)) (or (or ?v_125 ?v_100) P28)) (or (or ?v_27 ?v_4) P2)) (or (or ?v_38 ?v_19) ?v_25)) (or (or ?v_197 ?v_1) ?v_2)) (or (or ?v_3 ?v_93) ?v_12)) (or (or P19 ?v_10) ?v_34)) (or (or ?v_2 P36) P33)) (or (or P4 ?v_6) ?v_9)) (or (or ?v_66 ?v_24) ?v_48)) (or (or ?v_5 ?v_89) P2)) (or (or P14 P30) P26)) (or (or ?v_8 ?v_5) ?v_169)) (or (or P10 ?v_147) ?v_7)) (or (or ?v_159 ?v_181) ?v_151)) (or (or ?v_9 ?v_10) ?v_42)) (or (or ?v_31 P4) P23)) (or (or ?v_21 ?v_12) ?v_16)) (or (or ?v_82 ?v_13) ?v_104)) (or (or ?v_81 ?v_15) ?v_16)) (or (or ?v_17 ?v_55) ?v_22)) (or (or ?v_152 ?v_58) ?v_54)) (or (or ?v_9 ?v_40) ?v_20)) (or (or ?v_144 ?v_1) ?v_85)) (or (or ?v_65 P2) ?v_19)) (or (or P7 ?v_6) P21)) (or (or ?v_22 P14) ?v_186)) (or (or ?v_72 ?v_24) ?v_25)) (or (or ?v_29 ?v_41) P16)) (or (or ?v_27 ?v_148) ?v_3)) (or (or ?v_173 ?v_137) ?v_49)) (or (or ?v_59 ?v_28) P38)) (or (or ?v_29 ?v_32) ?v_124)) (or (or P4 ?v_102) ?v_32)) (or (or P35 ?v_33) P8)) (or (or P25 ?v_123) P16)) (or (or P18 ?v_83) ?v_35)) (or (or ?v_45 P27) ?v_138)) (or (or ?v_22 ?v_36) P6)) (or (or ?v_37 P38) ?v_62)) (or (or ?v_110 ?v_43) ?v_37)) (or (or ?v_38 ?v_112) ?v_53)) (or (or ?v_10 ?v_44) ?v_68)) (or (or ?v_94 ?v_40) ?v_34)) (or (or ?v_41 ?v_29) ?v_42)) (or (or ?v_43 ?v_47) ?v_70)) (or (or ?v_74 ?v_46) P30)) (or (or ?v_37 P21) ?v_177)) (or (or ?v_44 (not P8)) P1)) (or (or ?v_28 ?v_45) P14)) (or (or ?v_46 P5) ?v_47)) (or (or ?v_45 ?v_84) ?v_103)) (or (or ?v_56 ?v_49) ?v_76)) (or (or ?v_105 ?v_50) ?v_142)) (or (or ?v_42 ?v_12) P0)) (or (or ?v_48 ?v_50) ?v_51)) (or (or ?v_60 ?v_53) ?v_54)) (or (or ?v_67 ?v_6) P1)) (or (or P15 P11) ?v_55)) (or (or ?v_56 ?v_91) ?v_146)) (or (or ?v_199 ?v_28) ?v_107)) (or (or ?v_57 ?v_20) P6)) (or (or ?v_132 ?v_96) ?v_126)) (or (or ?v_60 ?v_156) P18)) (or (or P5 P39) ?v_22)) (or (or P18 ?v_62) ?v_6)) (or ?v_205 ?v_78)) (or (or ?v_64 ?v_75) ?v_65)) (or (or ?v_86 ?v_116) ?v_9)) (or (or ?v_66 P21) ?v_149)) (or (or ?v_43 ?v_121) ?v_29)) (or (or ?v_68 ?v_73) ?v_108)) (or (or P32 ?v_129) ?v_69)) (or (or ?v_17 P18) ?v_174)) (or (or ?v_77 ?v_183) P4)) (or (or ?v_58 ?v_73) ?v_74)) (or (or ?v_111 ?v_25) ?v_118)) (or (or ?v_172 P25) ?v_92)) (or (or ?v_75 ?v_87) ?v_77)) (or (or ?v_23 ?v_99) ?v_78)) (or (or ?v_77 ?v_79) ?v_65)) (or (or ?v_80 ?v_56) ?v_66)) (or (or ?v_81 ?v_82) ?v_155)) (or (or P24 ?v_131) P13)) (or (or ?v_83 P13) ?v_68)) (or (or P39 ?v_10) P7)) (or (or ?v_38 ?v_84) ?v_42)) (or (or ?v_17 ?v_85) ?v_64)) (or (or ?v_168 ?v_86) ?v_87)) (or (or P12 ?v_88) ?v_89)) (or (or ?v_0 ?v_150) ?v_167)) (or (or P29 ?v_91) ?v_54)) (or (or ?v_198 ?v_92) ?v_29)) (or (or ?v_93 ?v_43) ?v_25)) (or (or ?v_75 ?v_98) ?v_94)) (or (or ?v_12 ?v_43) ?v_120)) (or (or ?v_18 ?v_95) ?v_96)) (or (or ?v_97 ?v_45) P20)) (or (or ?v_98 P36) ?v_99)) (or (or P14 ?v_17) ?v_40)) (or (or ?v_100 ?v_88) ?v_101)) (or (or ?v_62 ?v_102) ?v_96)) (or (or ?v_69 ?v_103) ?v_77)) (or (or ?v_27 P10) ?v_104)) (or (or ?v_115 ?v_106) ?v_117)) (or (or ?v_83 P14) ?v_13)) (or (or ?v_91 P30) ?v_101)) (or (or ?v_79 ?v_41) ?v_34)) (or (or ?v_0 ?v_45) ?v_171)) (or (or ?v_49 ?v_86) ?v_25)) (or (or ?v_70 ?v_108) ?v_17)) (or (or ?v_23 ?v_109) ?v_110)) (or (or ?v_40 ?v_44) ?v_133)) (or (or P1 ?v_5) ?v_111)) (or (or P30 ?v_112) P29)) (or (or P17 P19) P31)) (or (or ?v_46 ?v_113) ?v_114)) (or (or ?v_115 ?v_116) ?v_67)) (or (or P31 ?v_117) ?v_113)) (or (or ?v_45 ?v_119) ?v_105)) (or (or ?v_106 ?v_191) P34)) (or (or ?v_118 ?v_54) ?v_119)) (or (or ?v_120 ?v_121) ?v_95)) (or (or ?v_97 ?v_6) ?v_122)) (or (or ?v_102 ?v_107) ?v_108)) (or (or ?v_7 ?v_93) ?v_65)) (or (or ?v_34 ?v_48) ?v_123)) (or (or ?v_5 ?v_21) ?v_124)) (or (or ?v_47 ?v_125) ?v_162)) (or (or P19 ?v_27) ?v_100)) (or (or ?v_182 P38) ?v_176)) (or (or ?v_95 ?v_110) ?v_126)) (or (or ?v_4 ?v_53) ?v_125)) (or (or ?v_127 ?v_108) P19)) (or (or ?v_22 ?v_38) ?v_51)) (or (or ?v_56 ?v_88) ?v_128)) (or (or ?v_180 P2) P8)) (or (or ?v_1 ?v_83) ?v_130)) (or (or P39 ?v_85) ?v_18)) (or (or ?v_17 P34) P35)) (or (or P6 P12) ?v_131)) (or (or ?v_60 ?v_132) P28)) (or (or ?v_36 ?v_133) ?v_143)) (or (or ?v_192 P35) ?v_2)) (or (or P33 ?v_134) ?v_87)) (or (or ?v_86 ?v_5) ?v_84)) (or (or ?v_48 ?v_154) ?v_36)) (or (or ?v_165 P10) ?v_136)) (or (or ?v_137 ?v_138) ?v_23)) (or (or ?v_158 ?v_95) ?v_42)) (or (or ?v_139 ?v_140) ?v_24)) (or (or ?v_187 ?v_110) ?v_101)) (or (or ?v_141 ?v_142) P8)) (or (or ?v_70 ?v_3) P36)) (or (or ?v_99 ?v_138) P14)) (or (or ?v_101 ?v_143) ?v_144)) (or (or P19 ?v_134) P15)) (or (or ?v_66 ?v_140) ?v_145)) (or (or P16 P16) ?v_62)) (or (or ?v_146 ?v_55) P13)) (or (or P3 ?v_135) ?v_62)) (or (or ?v_153 ?v_147) P35)) (or (or ?v_123 ?v_59) ?v_148)) (or (or ?v_129 ?v_19) ?v_53)) (or (or P11 ?v_104) ?v_175)) (or (or ?v_97 ?v_62) ?v_43)) (or (or ?v_24 ?v_149) ?v_41)) (or (or ?v_142 P1) P12)) (or (or P1 ?v_101) ?v_150)) (or (or ?v_151 P4) ?v_20)) (or (or ?v_46 ?v_119) ?v_104)) (or (or ?v_152 ?v_29) ?v_115)) (or (or ?v_8 ?v_45) ?v_195)) (or (or P21 ?v_153) ?v_138)) (or (or ?v_96 ?v_73) ?v_154)) (or (or P11 P3) ?v_42)) (or (or ?v_121 ?v_137) ?v_155)) (or (or P11 ?v_166) ?v_156)) (or (or ?v_54 ?v_31) ?v_7)) (or (or ?v_133 ?v_150) ?v_156)) (or (or ?v_77 ?v_157) ?v_98)) (or (or ?v_93 ?v_35) ?v_129)) (or (or ?v_41 ?v_1) ?v_55)) (or (or ?v_113 ?v_202) ?v_149)) (or (or ?v_203 ?v_190) ?v_158)) (or (or P33 P19) P18)) (or (or ?v_0 ?v_21) P14)) (or (or ?v_159 ?v_92) P4)) (or (or ?v_41 ?v_160) ?v_158)) (or (or ?v_139 ?v_78) P30)) (or (or ?v_92 ?v_208) P14)) (or (or P29 ?v_135) P39)) (or (or ?v_91 ?v_128) ?v_40)) (or (or ?v_92 P8) P15)) (or (or ?v_138 ?v_78) P19)) (or (or ?v_109 ?v_92) P23)) (or (or ?v_95 ?v_161) ?v_125)) (or (or P4 ?v_31) ?v_75)) (or (or ?v_114 ?v_162) ?v_117)) (or (or ?v_103 ?v_22) ?v_164)) (or (or ?v_134 ?v_44) ?v_55)) (or (or P36 P9) ?v_94)) (or (or ?v_131 ?v_105) ?v_3)) (or (or ?v_65 ?v_139) ?v_129)) (or (or ?v_31 ?v_170) ?v_53)) (or (or ?v_164 P17) ?v_60)) (or (or ?v_35 ?v_165) P38)) (or (or ?v_69 ?v_120) ?v_166)) (or (or ?v_149 P22) P3)) (or (or ?v_178 ?v_100) ?v_156)) (or (or P7 ?v_121) ?v_104)) (or (or ?v_123 ?v_193) ?v_168)) (or (or P21 ?v_138) ?v_54)) (or (or P31 ?v_15) ?v_37)) (or (or ?v_91 ?v_169) ?v_170)) (or (or P31 ?v_126) P36)) (or (or ?v_17 ?v_171) ?v_88)) (or (or ?v_172 ?v_79) ?v_128)) (or (or ?v_27 ?v_85) ?v_173)) (or (or ?v_151 ?v_65) P13)) (or (or ?v_87 ?v_102) P9)) (or (or ?v_130 ?v_69) P5)) (or (or ?v_151 ?v_166) ?v_174)) (or (or ?v_80 ?v_95) ?v_115)) (or (or P6 ?v_122) ?v_139)) (or (or (not P0) ?v_168) ?v_127)) (or (or ?v_47 ?v_173) ?v_160)) (or (or ?v_37 ?v_129) ?v_54)) (or (or ?v_12 ?v_175) ?v_47)) (or (or P22 ?v_54) P34)) (or (or ?v_117 ?v_19) P6)) (or (or ?v_48 ?v_176) ?v_88)) (or (or ?v_188 ?v_80) P26)) (or (or ?v_177 ?v_115) ?v_76)) (or (or ?v_121 ?v_9) P27)) (or (or ?v_110 ?v_40) P15)) (or (or P21 ?v_131) ?v_178)) (or (or ?v_23 ?v_124) ?v_12)) (or (or ?v_112 ?v_9) ?v_93)) (or (or ?v_179 P33) ?v_150)) (or (or ?v_2 ?v_58) ?v_165)) (or (or ?v_31 ?v_88) ?v_29)) (or (or ?v_48 ?v_86) ?v_133)) (or (or ?v_10 ?v_166) ?v_37)) (or (or P11 ?v_169) ?v_17)) (or (or ?v_180 P39) ?v_176)) (or (or ?v_80 ?v_124) P17)) (or (or ?v_122 ?v_94) ?v_9)) (or (or ?v_181 ?v_78) ?v_55)) (or (or ?v_2 ?v_10) ?v_168)) (or (or ?v_24 ?v_109) ?v_182)) (or (or P19 ?v_123) ?v_86)) (or (or ?v_157 P33) P3)) (or (or ?v_183 ?v_101) P39)) (or (or P2 ?v_97) ?v_147)) (or (or ?v_16 P27) ?v_155)) (or (or ?v_18 ?v_177) ?v_200)) (or (or P9 ?v_42) P32)) (or (or ?v_184 ?v_152) ?v_141)) (or (or ?v_172 ?v_176) ?v_82)) (or (or ?v_134 ?v_41) ?v_56)) (or (or ?v_55 ?v_91) ?v_167)) (or (or ?v_86 ?v_185) ?v_33)) (or (or P1 ?v_68) ?v_77)) (or (or ?v_183 ?v_102) ?v_75)) (or (or ?v_78 ?v_143) ?v_164)) (or (or ?v_87 ?v_70) ?v_49)) (or (or ?v_35 ?v_83) ?v_87)) (or (or ?v_76 ?v_29) ?v_89)) (or (or ?v_64 ?v_186) ?v_167)) (or (or ?v_16 ?v_16) ?v_97)) (or (or ?v_62 ?v_187) ?v_188)) (or (or ?v_70 ?v_189) ?v_175)) (or (or ?v_125 ?v_25) ?v_156)) (or (or ?v_190 P6) ?v_165)) (or (or ?v_194 ?v_73) ?v_95)) (or (or ?v_17 ?v_65) ?v_43)) (or (or P20 ?v_62) ?v_27)) (or (or ?v_2 ?v_191) ?v_49)) (or (or ?v_112 ?v_40) ?v_138)) (or (or ?v_69 ?v_182) ?v_165)) (or (or P0 ?v_12) P39)) (or (or ?v_6 ?v_124) ?v_192)) (or (or ?v_72 ?v_81) ?v_193)) (or (or ?v_7 ?v_56) ?v_185)) (or (or P6 ?v_15) P24)) (or (or P34 ?v_139) ?v_131)) (or (or ?v_83 ?v_133) P27)) (or (or P23 ?v_48) ?v_102)) (or (or ?v_187 ?v_194) ?v_54)) (or (or ?v_2 ?v_153) ?v_195)) (or (or ?v_126 ?v_18) P13)) (or (or ?v_49 ?v_59) P16)) (or (or P37 ?v_175) ?v_42)) (or (or P30 ?v_93) P24)) (or (or ?v_161 P10) ?v_45)) (or (or ?v_127 ?v_153) ?v_102)) (or (or ?v_55 ?v_117) ?v_196)) (or (or ?v_27 P23) ?v_197)) (or (or ?v_104 ?v_198) ?v_172)) (or (or ?v_188 P29) ?v_78)) (or (or ?v_97 ?v_191) ?v_12)) (or (or ?v_4 P30) ?v_78)) (or (or ?v_182 P39) ?v_108)) (or (or P36 P8) ?v_108)) (or (or ?v_194 ?v_87) ?v_131)) (or (or ?v_197 ?v_43) P36)) (or (or ?v_149 ?v_116) ?v_10)) (or (or ?v_124 ?v_159) ?v_79)) (or (or ?v_9 ?v_8) ?v_20)) (or (or ?v_153 ?v_166) ?v_50)) (or (or ?v_165 ?v_198) ?v_189)) (or (or ?v_152 ?v_113) ?v_108)) (or (or ?v_85 ?v_132) ?v_77)) (or (or ?v_78 ?v_183) ?v_111)) (or (or ?v_171 ?v_89) P28)) (or (or ?v_99 ?v_76) ?v_186)) (or (or ?v_83 P22) ?v_53)) (or (or ?v_35 ?v_44) ?v_178)) (or (or P15 ?v_187) ?v_53)) (or (or P23 ?v_59) ?v_53)) (or (or ?v_91 ?v_16) ?v_145)) (or (or ?v_42 ?v_29) ?v_128)) (or (or ?v_156 ?v_198) ?v_96)) (or (or ?v_155 ?v_107) ?v_80)) (or (or ?v_113 ?v_112) P24)) (or (or ?v_147 ?v_33) ?v_190)) (or (or P27 ?v_51) ?v_22)) (or (or ?v_156 ?v_178) ?v_140)) (or (or ?v_45 ?v_24) ?v_167)) (or (or ?v_88 ?v_25) P22)) (or (or ?v_152 ?v_108) ?v_140)) (or (or ?v_132 ?v_48) ?v_45)) (or (or P28 ?v_80) ?v_147)) (or (or ?v_144 ?v_78) ?v_173)) (or (or P34 ?v_95) ?v_77)) (or (or ?v_37 ?v_130) ?v_133)) (or (or ?v_174 ?v_199) P7)) (or (or ?v_109 ?v_64) ?v_147)) (or (or ?v_144 ?v_29) ?v_28)) (or (or ?v_185 ?v_82) P14)) (or (or P10 P5) P39)) (or (or ?v_62 ?v_184) ?v_153)) (or (or ?v_48 ?v_3) ?v_139)) (or (or ?v_76 ?v_105) ?v_174)) (or (or ?v_159 ?v_161) ?v_74)) (or (or P0 ?v_190) ?v_126)) (or (or (not P4) P27) P11)) (or (or ?v_171 ?v_118) ?v_16)) (or (or (not ?v_200) P20) ?v_189)) (or (or P5 ?v_171) ?v_62)) (or (or P35 ?v_170) ?v_185)) (or (or ?v_188 ?v_20) ?v_201)) (or (or ?v_144 ?v_132) ?v_176)) (or (or ?v_95 ?v_152) ?v_56)) (or (or ?v_93 ?v_17) ?v_114)) (or (or ?v_91 ?v_126) ?v_170)) (or (or ?v_99 P10) ?v_194)) (or (or ?v_3 ?v_206) ?v_73)) (or (or ?v_136 ?v_42) ?v_173)) (or (or ?v_175 P3) ?v_188)) (or (or ?v_64 ?v_143) ?v_184)) (or (or ?v_119 ?v_128) ?v_99)) (or (or P22 ?v_104) ?v_158)) (or (or ?v_78 ?v_139) ?v_164)) (or (or ?v_189 ?v_196) ?v_102)) (or (or ?v_175 ?v_191) P18)) (or (or ?v_154 ?v_151) ?v_179)) (or (or ?v_145 ?v_136) ?v_16)) (or (or ?v_19 ?v_126) ?v_134)) (or (or ?v_180 ?v_155) ?v_50)) (or (or ?v_41 P4) ?v_99)) (or (or ?v_17 ?v_183) ?v_92)) (or (or P32 ?v_12) P31)) (or ?v_204 ?v_87)) (or (or ?v_2 ?v_186) ?v_0)) (or (or ?v_83 ?v_149) ?v_202)) (or (or P16 ?v_130) ?v_96)) (or (or P18 ?v_78) ?v_81)) (or (or ?v_38 ?v_114) ?v_155)) (or (or P3 ?v_148) ?v_194)) (or (or ?v_190 ?v_114) ?v_182)) (or (or ?v_67 ?v_17) ?v_40)) (or (or ?v_133 P19) ?v_66)) (or (or ?v_78 P28) P35)) (or (or ?v_83 ?v_46) ?v_158)) (or (or ?v_17 ?v_139) ?v_158)) (or (or ?v_66 ?v_139) P38)) (or (or ?v_17 P28) ?v_138)) (or (or ?v_151 ?v_142) ?v_55)) (or (or ?v_130 ?v_181) ?v_153)) (or (or ?v_17 P5) ?v_207)) (or (or P2 ?v_119) ?v_150)) (or (or ?v_186 ?v_203) ?v_101)) (or (or ?v_23 ?v_187) ?v_19)) (or (or ?v_152 ?v_73) ?v_178)) (or (or ?v_177 ?v_72) ?v_27)) (or (or ?v_76 ?v_196) ?v_95)) (or (or ?v_134 ?v_21) ?v_45)) (or (or ?v_149 ?v_27) ?v_160)) (or (or P21 ?v_107) ?v_13)) (or (or P2 ?v_146) ?v_124)) (or (or ?v_32 P25) ?v_36)) (or (or ?v_44 ?v_57) ?v_64)) (or (or ?v_57 ?v_49) ?v_83)) (or (or ?v_112 P28) ?v_29)) (or (or ?v_87 P35) ?v_31)) (or ?v_204 ?v_80)) (or (or ?v_156 ?v_9) ?v_129)) (or (or ?v_173 P22) ?v_25)) (or (or ?v_138 ?v_44) ?v_187)) (or (or ?v_127 P33) ?v_32)) (or (or ?v_155 ?v_94) P16)) (or (or ?v_165 ?v_134) P31)) (or (or ?v_200 ?v_172) ?v_193)) (or (or ?v_94 P31) ?v_29)) (or (or ?v_73 ?v_18) ?v_182)) (or (or ?v_145 ?v_48) ?v_23)) (or (or ?v_166 P38) ?v_33)) (or (or ?v_153 ?v_55) ?v_12)) (or (or ?v_44 ?v_22) ?v_66)) (or ?v_205 ?v_43)) (or (or ?v_36 ?v_47) ?v_64)) (or (or ?v_182 ?v_29) ?v_129)) (or (or ?v_206 P24) ?v_21)) (or (or P26 ?v_174) ?v_129)) (or (or ?v_93 P7) ?v_105)) (or (or ?v_107 ?v_178) ?v_20)) (or (or ?v_72 ?v_51) ?v_44)) (or (or ?v_77 ?v_4) ?v_207)) (or (or ?v_180 ?v_133) ?v_125)) (or (or ?v_72 ?v_25) ?v_8)) (or (or ?v_120 ?v_36) ?v_42)) (or (or ?v_113 P36) ?v_99)) (or (or ?v_37 ?v_191) ?v_201)) (or (or ?v_127 ?v_111) ?v_48)) (or (or ?v_62 ?v_157) ?v_144)) (or (or ?v_206 ?v_117) ?v_103)) (or (or ?v_143 ?v_187) ?v_12)) (or (or ?v_62 ?v_159) ?v_193)) (or (or ?v_207 ?v_82) ?v_103)) (or (or ?v_169 ?v_58) P14)) (or (or ?v_102 ?v_179) ?v_51)) (or (or ?v_158 ?v_150) ?v_128)) (or (or ?v_33 ?v_122) ?v_102)) (or (or ?v_118 ?v_158) P35)) (or (or ?v_189 ?v_74) ?v_94)) (or (or P32 ?v_5) ?v_140)) (or (or ?v_88 ?v_101) ?v_124)) (or (or P30 ?v_195) ?v_147)) (or (or ?v_136 ?v_140) ?v_208)) (or (or ?v_153 ?v_81) ?v_44)) (or (or ?v_16 ?v_98) P26)) (or (or ?v_195 ?v_114) P3)) (or (or P12 P1) ?v_76)) (or (or ?v_38 ?v_42) ?v_207)) (or (or ?v_109 ?v_161) ?v_133)) (or (or ?v_200 ?v_150) ?v_15)) (or (or ?v_60 ?v_56) ?v_127)) (or (or ?v_147 P37) ?v_155)) (or (or ?v_117 P33) ?v_21)) (or (or ?v_107 ?v_195) ?v_128)) (or (or ?v_35 ?v_93) ?v_51)) (or (or ?v_139 P25) ?v_166)) (or (or ?v_182 P6) ?v_167)) (or (or ?v_157 ?v_76) ?v_154)) (or (or ?v_56 ?v_141) ?v_184)) (or (or ?v_111 ?v_114) ?v_77)) (or (or ?v_123 ?v_177) ?v_1)) (or (or ?v_179 ?v_75) P21)) (or (or ?v_79 P38) ?v_182)) (or (or ?v_178 ?v_144) ?v_118)) (or (or ?v_51 ?v_185) ?v_62)) (or (or P28 ?v_135) ?v_81)) (or (or P5 ?v_137) ?v_148)) (or (or ?v_112 ?v_125) ?v_72)))))))))))))))))))))))))))))))))
(check-sat)
(exit)
